# Solution for model count
# Objective value = 10
z#1 1
z#2 0
z#3 0
z#4 0
z#5 1
z#6 1
z#7 0
z#8 1
z#9 0
z#10 1
z#11 1
z#12 0
z#13 0
z#14 0
z#15 1
z#16 1
z#17 1
z#18 0
z#19 1
z#20 0
z#21 0
z#22 0
z#23 0
z#24 0
x#24 0
x#23 0
x#22 0
x#21 0
x#20 0
x#19 3382
x#18 0
x#17 1464
x#16 314
x#15 594
x#14 0
x#13 0
x#12 0
x#11 28
x#10 882
x#9 0
x#8 999
x#7 0
x#6 2263
x#5 57
x#4 0
x#3 0
x#2 0
x#1 17
